NAME: tsp30-3
TYPE: TSP
DIMENSION: 30
EDGE_WEIGHT_TYPE: EUC_2D
NODE_COORD_SECTION
0 6 97
1 99 6
2 55 83
3 91 37
4 84 2
5 18 55
6 76 69
7 36 94
8 93 42
9 1 87
10 57 37
11 21 27
12 38 85
13 7 74
14 86 77
15 5 58
16 81 46
17 24 69
18 0 2
19 58 40
20 94 73
21 1 83
22 5 79
23 59 60
24 26 3
25 83 57
26 40 87
27 80 73
28 77 89
29 73 41
EOF